feasible solution found by trivial heuristic after 1.8 seconds, objective value -6.605684e+07
presolving:
(round 1, fast)       295261 del vars, 295261 del conss, 0 add conss, 0 chg bounds, 0 chg sides, 0 chg coeffs, 0 upgd conss, 0 impls, 6509 clqs
   (5.8s) running MILP presolver
   (6.3s) MILP presolver (2 rounds): 0 aggregations, 3239 fixings, 0 bound changes
(round 2, medium)     298500 del vars, 308248 del conss, 9748 add conss, 0 chg bounds, 0 chg sides, 0 chg coeffs, 0 upgd conss, 0 impls, 6509 clqs
(round 3, exhaustive) 298500 del vars, 308533 del conss, 9748 add conss, 0 chg bounds, 0 chg sides, 0 chg coeffs, 0 upgd conss, 0 impls, 9463 clqs
(round 4, exhaustive) 298500 del vars, 308533 del conss, 9748 add conss, 0 chg bounds, 0 chg sides, 0 chg coeffs, 9463 upgd conss, 0 impls, 9463 clqs
   (6.8s) probing: 51/138 (37.0%) - 0 fixings, 0 aggregations, 0 implications, 0 bound changes
   (6.8s) probing aborted: 50/50 successive totally useless probings
   (6.9s) symmetry computation started: requiring (bin +, int -, cont +), (fixed: bin -, int +, cont -)
   (6.9s) no symmetry present
presolving (5 rounds: 5 fast, 4 medium, 3 exhaustive):
 298500 deleted vars, 308533 deleted constraints, 9748 added constraints, 0 tightened bounds, 0 added holes, 0 changed sides, 0 changed coefficients
 0 implications, 9463 cliques
presolved problem has 138 variables (138 bin, 0 int, 0 impl, 0 cont) and 9463 constraints
   9463 constraints of type <setppc>
Presolving Time: 5.58
transformed 1/1 original solutions to the transformed problem space

 time | node  | left  |LP iter|LP it/n|mem/heur|mdpt |vars |cons |rows |cuts |sepa|confs|strbr|  dualbound   | primalbound  |  gap   | compl. 
p10.6s|     1 |     0 |     0 |     - |  clique|   0 | 138 |9463 |9463 |   0 |  0 |   0 |   0 |-6.488052e+07 |-6.594983e+07 |   1.65%| unknown
p10.6s|     1 |     0 |     0 |     - |   locks|   0 | 138 |9463 |9463 |   0 |  0 |   0 |   0 |-6.488052e+07 |-6.594932e+07 |   1.65%| unknown
p10.6s|     1 |     0 |    15 |     - | vbounds|   0 | 138 |9463 |9463 |   0 |  0 |   0 |   0 |-6.488052e+07 |-6.594067e+07 |   1.63%| unknown
 11.0s|     1 |     0 |  1105 |     - |   935M |   0 | 138 |9463 |9463 |   0 |  0 |   0 |   0 |-6.582350e+07 |-6.594067e+07 |   0.18%| unknown
 11.1s|     1 |     0 |  1247 |     - |   938M |   0 | 138 |9463 |9464 |   1 |  1 |   0 |   0 |-6.582427e+07 |-6.594067e+07 |   0.18%| unknown
 11.2s|     1 |     0 |  1416 |     - |   939M |   0 | 138 |9463 |9465 |   2 |  2 |   0 |   0 |-6.582479e+07 |-6.594067e+07 |   0.18%| unknown
 11.3s|     1 |     0 |  1546 |     - |   942M |   0 | 138 |9463 |9466 |   3 |  3 |   0 |   0 |-6.582507e+07 |-6.594067e+07 |   0.18%| unknown
 11.4s|     1 |     0 |  1657 |     - |   943M |   0 | 138 |9463 |9467 |   4 |  4 |   0 |   0 |-6.582532e+07 |-6.594067e+07 |   0.18%| unknown
 11.5s|     1 |     0 |  1818 |     - |   945M |   0 | 138 |9463 |9468 |   5 |  5 |   0 |   0 |-6.582546e+07 |-6.594067e+07 |   0.18%| unknown
 11.7s|     1 |     0 |  1970 |     - |   948M |   0 | 138 |9463 |9469 |   6 |  6 |   0 |   0 |-6.582553e+07 |-6.594067e+07 |   0.17%| unknown
 11.8s|     1 |     0 |  2089 |     - |   949M |   0 | 138 |9463 |9470 |   7 |  7 |   0 |   0 |-6.582559e+07 |-6.594067e+07 |   0.17%| unknown
 11.9s|     1 |     0 |  2174 |     - |   951M |   0 | 138 |9463 |9471 |   8 |  8 |   0 |   0 |-6.582562e+07 |-6.594067e+07 |   0.17%| unknown
 12.0s|     1 |     0 |  2286 |     - |   952M |   0 | 138 |9463 |9472 |   9 |  9 |   0 |   0 |-6.582564e+07 |-6.594067e+07 |   0.17%| unknown
 12.1s|     1 |     0 |  2472 |     - |   955M |   0 | 138 |9463 |9473 |  10 | 10 |   0 |   0 |-6.582567e+07 |-6.594067e+07 |   0.17%| unknown
 12.2s|     1 |     0 |  2545 |     - |   956M |   0 | 138 |9463 |9474 |  11 | 11 |   0 |   0 |-6.582569e+07 |-6.594067e+07 |   0.17%| unknown
 time | node  | left  |LP iter|LP it/n|mem/heur|mdpt |vars |cons |rows |cuts |sepa|confs|strbr|  dualbound   | primalbound  |  gap   | compl. 
 12.2s|     1 |     0 |  2601 |     - |   957M |   0 | 138 |9463 |9476 |  13 | 12 |   0 |   0 |-6.582569e+07 |-6.594067e+07 |   0.17%| unknown
 12.3s|     1 |     0 |  2658 |     - |   958M |   0 | 138 |9463 |9477 |  14 | 13 |   0 |   0 |-6.582570e+07 |-6.594067e+07 |   0.17%| unknown
 12.4s|     1 |     0 |  2705 |     - |   959M |   0 | 138 |9463 |9478 |  15 | 14 |   0 |   0 |-6.582571e+07 |-6.594067e+07 |   0.17%| unknown
 12.5s|     1 |     0 |  2736 |     - |   960M |   0 | 138 |9463 |9479 |  16 | 15 |   0 |   0 |-6.582571e+07 |-6.594067e+07 |   0.17%| unknown
 12.5s|     1 |     0 |  2768 |     - |   961M |   0 | 138 |9463 |9480 |  17 | 16 |   0 |   0 |-6.582572e+07 |-6.594067e+07 |   0.17%| unknown
 12.6s|     1 |     0 |  2788 |     - |   962M |   0 | 138 |9463 |9481 |  18 | 17 |   0 |   0 |-6.582572e+07 |-6.594067e+07 |   0.17%| unknown
 12.7s|     1 |     0 |  2908 |     - |   963M |   0 | 138 |9463 |9483 |  20 | 18 |   0 |   0 |-6.582579e+07 |-6.594067e+07 |   0.17%| unknown
 12.8s|     1 |     0 |  2955 |     - |   964M |   0 | 138 |9463 |9484 |  21 | 19 |   0 |   0 |-6.582581e+07 |-6.594067e+07 |   0.17%| unknown
 12.8s|     1 |     0 |  3044 |     - |   965M |   0 | 138 |9463 |9486 |  23 | 20 |   0 |   0 |-6.582586e+07 |-6.594067e+07 |   0.17%| unknown
 12.9s|     1 |     0 |  3121 |     - |   965M |   0 | 138 |9463 |9487 |  24 | 21 |   0 |   0 |-6.582589e+07 |-6.594067e+07 |   0.17%| unknown
d13.3s|     1 |     0 |  4113 |     - |farkasdi|   0 | 138 |9463 |9487 |   0 | 23 |   0 |   0 |-6.582589e+07 |-6.592158e+07 |   0.15%| unknown
 13.3s|     1 |     0 |  4113 |     - |   965M |   0 | 138 |9463 |9487 |  24 | 23 |   0 |   0 |-6.582589e+07 |-6.592158e+07 |   0.15%| unknown
 13.4s|     1 |     0 |  4135 |     - |   965M |   0 | 138 |9463 |9488 |  25 | 24 |   0 |   0 |-6.582589e+07 |-6.592158e+07 |   0.15%| unknown
 21.4s|     1 |     2 |  4135 |     - |   965M |   0 | 138 |9463 |9488 |  25 | 25 |   0 |  30 |-6.582859e+07 |-6.592158e+07 |   0.14%| unknown
*22.1s|     2 |     1 |  4742 |1614.0 |strongbr|   1 | 138 |9463 |9480 |  25 |  1 |   0 |  35 |-6.582859e+07 |-6.588743e+07 |   0.09%| unknown

SCIP Status        : problem is solved [optimal solution found]
Solving Time (sec) : 56.00
Solving Nodes      : 47
Primal Bound       : -6.58874319587254e+07 (116 solutions)
Dual Bound         : -6.58874319587254e+07
Gap                : 0.00 %
Solve Status: optimal
Solve Time: 61.57 seconds
